DIMENSION: 10
EDGE_WEIGHT_TYPE: EXPLICIT
EDGE_WEIGHT_FORMAT: FULL_MATRIX
EDGE_WEIGHT_SECTION:
32767 32767 32767 32767 72 50 32767 32767 32767 32767 
32767 32767 32767 15 4 38 32767 32767 95 32767 
32767 32767 32767 30 32767 64 40 33 32767 14 
32767 15 30 32767 32767 63 32767 32767 32767 97 
72 4 32767 32767 32767 32767 32767 15 32767 32767 
50 38 64 63 32767 32767 32767 32767 8 32767 
32767 32767 40 32767 32767 32767 32767 89 32767 32767 
32767 32767 33 32767 15 32767 89 32767 79 32767 
32767 95 32767 32767 32767 8 32767 79 32767 32767 
32767 32767 14 97 32767 32767 32767 32767 32767 32767 
EOF